p tw 121 18151 2 
1 3 
1 4 
1 5 
1 6 
1 7 
1 8 
1 9 
1 10 
1 11 
1 12 
1 20 
1 23 
1 29 
1 34 
1 35 
1 45 
1 54 
1 56 
1 60 
1 67 
1 69 
1 78 
1 88 
1 89 
1 94 
1 100 
1 107 
1 111 
1 114 
2 3 
2 4 
2 5 
2 6 
2 7 
2 8 
2 9 
2 10 
2 11 
2 13 
2 15 
2 23 
2 24 
2 35 
2 36 
2 46 
2 49 
2 57 
2 61 
2 68 
2 76 
2 79 
2 86 
2 90 
2 96 
2 101 
2 106 
2 112 
2 121 
3 4 
3 5 
3 6 
3 7 
3 8 
3 9 
3 10 
3 11 
3 14 
3 17 
3 25 
3 30 
3 36 
3 43 
3 46 
3 47 
3 56 
3 58 
3 69 
3 70 
3 80 
3 84 
3 91 
3 99 
3 102 
3 104 
3 113 
3 119 
4 5 
4 6 
4 7 
4 8 
4 9 
4 10 
4 11 
4 15 
4 21 
4 26 
4 31 
4 37 
4 44 
4 48 
4 51 
4 59 
4 63 
4 70 
4 72 
4 81 
4 82 
4 91 
4 92 
4 101 
4 103 
4 111 
4 114 
5 6 
5 7 
5 8 
5 9 
5 10 
5 11 
5 12 
5 16 
5 27 
5 32 
5 38 
5 42 
5 49 
5 52 
5 60 
5 62 
5 71 
5 77 
5 82 
5 83 
5 92 
5 93 
5 102 
5 104 
5 112 
5 115 
6 7 
6 8 
6 9 
6 10 
6 11 
6 13 
6 17 
6 28 
6 33 
6 34 
6 39 
6 47 
6 50 
6 61 
6 64 
6 71 
6 72 
6 83 
6 87 
6 94 
6 95 
6 103 
6 105 
6 116 
6 118 
7 8 
7 9 
7 10 
7 11 
7 16 
7 18 
7 24 
7 29 
7 37 
7 40 
7 50 
7 51 
7 62 
7 66 
7 67 
7 73 
7 84 
7 85 
7 95 
7 97 
7 106 
7 109 
7 113 
7 117 
8 9 
8 10 
8 11 
8 14 
8 19 
8 27 
8 30 
8 40 
8 41 
8 52 
8 55 
8 63 
8 65 
8 74 
8 75 
8 81 
8 85 
8 90 
8 96 
8 100 
8 107 
8 116 
8 118 
9 10 
9 11 
9 19 
9 20 
9 28 
9 31 
9 38 
9 42 
9 48 
9 53 
9 57 
9 64 
9 73 
9 75 
9 80 
9 86 
9 89 
9 97 
9 108 
9 110 
9 119 
9 120 
10 11 
10 21 
10 22 
10 25 
10 32 
10 39 
10 43 
10 45 
10 54 
10 59 
10 65 
10 74 
10 76 
10 79 
10 87 
10 93 
10 98 
10 108 
10 109 
10 117 
10 120 
11 18 
11 22 
11 26 
11 33 
11 41 
11 44 
11 53 
11 55 
11 58 
11 66 
11 68 
11 77 
11 78 
11 88 
11 98 
11 99 
11 105 
11 110 
11 115 
11 121 
12 13 
12 14 
12 15 
12 16 
12 17 
12 18 
12 19 
12 20 
12 21 
12 22 
12 23 
12 32 
12 34 
12 42 
12 45 
12 52 
12 56 
12 62 
12 67 
12 77 
12 78 
12 83 
12 89 
12 92 
12 100 
12 102 
12 111 
12 112 
13 14 
13 15 
13 16 
13 17 
13 18 
13 19 
13 20 
13 21 
13 22 
13 24 
13 33 
13 34 
13 35 
13 46 
13 47 
13 57 
13 64 
13 68 
13 71 
13 79 
13 87 
13 90 
13 95 
13 101 
13 103 
13 112 
13 118 
14 15 
14 16 
14 17 
14 18 
14 19 
14 20 
14 21 
14 22 
14 25 
14 27 
14 36 
14 40 
14 47 
14 55 
14 58 
14 65 
14 69 
14 75 
14 80 
14 81 
14 90 
14 91 
14 100 
14 102 
14 113 
14 116 
15 16 
15 17 
15 18 
15 19 
15 20 
15 21 
15 22 
15 23 
15 26 
15 36 
15 37 
15 48 
15 49 
15 59 
15 61 
15 70 
15 76 
15 81 
15 86 
15 92 
15 96 
15 103 
15 106 
15 114 
15 121 
16 17 
16 18 
16 19 
16 20 
16 21 
16 22 
16 24 
16 27 
16 37 
16 38 
16 49 
16 50 
16 60 
16 66 
16 67 
16 71 
16 82 
16 85 
16 93 
16 97 
16 104 
16 109 
16 113 
16 115 
17 18 
17 19 
17 20 
17 21 
17 22 
17 28 
17 30 
17 39 
17 43 
17 46 
17 50 
17 56 
17 61 
17 70 
17 72 
17 83 
17 84 
17 94 
17 99 
17 104 
17 105 
17 116 
17 119 
18 19 
18 20 
18 21 
18 22 
18 26 
18 29 
18 40 
18 41 
18 51 
18 53 
18 58 
18 62 
18 68 
18 73 
18 78 
18 84 
18 95 
18 98 
18 105 
18 106 
18 115 
18 117 
19 20 
19 21 
19 22 
19 28 
19 30 
19 38 
19 41 
19 48 
19 52 
19 57 
19 63 
19 73 
19 74 
19 80 
19 85 
19 89 
19 96 
19 107 
19 110 
19 118 
19 120 
20 21 
20 22 
20 29 
20 31 
20 35 
20 42 
20 53 
20 54 
20 60 
20 64 
20 69 
20 75 
20 86 
20 88 
20 94 
20 97 
20 107 
20 108 
20 114 
20 119 
21 22 
21 31 
21 32 
21 43 
21 44 
21 51 
21 54 
21 63 
21 65 
21 72 
21 76 
21 82 
21 87 
21 91 
21 98 
21 101 
21 109 
21 111 
21 120 
22 25 
22 33 
22 39 
22 44 
22 45 
22 55 
22 59 
22 66 
22 74 
22 77 
22 79 
22 88 
22 93 
22 99 
22 108 
22 110 
22 117 
22 121 
23 24 
23 25 
23 26 
23 27 
23 28 
23 29 
23 30 
23 31 
23 32 
23 33 
23 34 
23 36 
23 45 
23 49 
23 56 
23 61 
23 67 
23 76 
23 78 
23 86 
23 89 
23 96 
23 100 
23 106 
23 111 
23 121 
24 25 
24 26 
24 27 
24 28 
24 29 
24 30 
24 31 
24 32 
24 33 
24 35 
24 37 
24 46 
24 50 
24 57 
24 66 
24 67 
24 68 
24 79 
24 85 
24 90 
24 97 
24 101 
24 109 
24 112 
24 113 
25 26 
25 27 
25 28 
25 29 
25 30 
25 31 
25 32 
25 33 
25 36 
25 39 
25 45 
25 47 
25 58 
25 59 
25 69 
25 74 
25 79 
25 80 
25 91 
25 93 
25 102 
25 108 
25 113 
25 117 
26 27 
26 28 
26 29 
26 30 
26 31 
26 32 
26 33 
26 37 
26 41 
26 48 
26 53 
26 58 
26 59 
26 68 
26 70 
26 78 
26 81 
26 92 
26 98 
26 103 
26 105 
26 114 
26 115 
27 28 
27 29 
27 30 
27 31 
27 32 
27 33 
27 38 
27 40 
27 49 
27 55 
27 60 
27 65 
27 71 
27 75 
27 81 
27 82 
27 90 
27 93 
27 100 
27 104 
27 115 
27 116 
28 29 
28 30 
28 31 
28 32 
28 33 
28 38 
28 39 
28 48 
28 50 
28 57 
28 61 
28 72 
28 73 
28 80 
28 83 
28 89 
28 94 
28 105 
28 110 
28 116 
28 120 
29 30 
29 31 
29 32 
29 33 
29 35 
29 40 
29 51 
29 54 
29 60 
29 62 
29 69 
29 73 
29 84 
29 88 
29 94 
29 95 
29 106 
29 107 
29 114 
29 117 
30 31 
30 32 
30 33 
30 41 
30 43 
30 46 
30 52 
30 56 
30 63 
30 70 
30 74 
30 84 
30 85 
30 96 
30 99 
30 104 
30 107 
30 118 
30 119 
31 32 
31 33 
31 42 
31 44 
31 51 
31 53 
31 63 
31 64 
31 72 
31 75 
31 82 
31 86 
31 91 
31 97 
31 101 
31 108 
31 111 
31 119 
32 33 
32 42 
32 43 
32 52 
32 54 
32 62 
32 65 
32 76 
32 77 
32 83 
32 87 
32 92 
32 98 
32 102 
32 109 
32 112 
32 120 
33 34 
33 44 
33 47 
33 55 
33 64 
33 66 
33 71 
33 77 
33 87 
33 88 
33 95 
33 99 
33 103 
33 110 
33 118 
33 121 
34 35 
34 36 
34 37 
34 38 
34 39 
34 40 
34 41 
34 42 
34 43 
34 44 
34 45 
34 47 
34 56 
34 64 
34 67 
34 71 
34 78 
34 87 
34 89 
34 95 
34 100 
34 103 
34 111 
34 118 
35 36 
35 37 
35 38 
35 39 
35 40 
35 41 
35 42 
35 43 
35 44 
35 46 
35 54 
35 57 
35 60 
35 68 
35 69 
35 79 
35 88 
35 90 
35 94 
35 101 
35 107 
35 112 
35 114 
36 37 
36 38 
36 39 
36 40 
36 41 
36 42 
36 43 
36 44 
36 47 
36 49 
36 58 
36 61 
36 69 
36 76 
36 80 
36 86 
36 91 
36 96 
36 102 
36 106 
36 113 
36 121 
37 38 
37 39 
37 40 
37 41 
37 42 
37 43 
37 44 
37 48 
37 50 
37 59 
37 66 
37 67 
37 70 
37 81 
37 85 
37 92 
37 97 
37 103 
37 109 
37 113 
37 114 
38 39 
38 40 
38 41 
38 42 
38 43 
38 44 
38 48 
38 49 
38 57 
38 60 
38 71 
38 73 
38 80 
38 82 
38 89 
38 93 
38 104 
38 110 
38 115 
38 120 
39 40 
39 41 
39 42 
39 43 
39 44 
39 45 
39 50 
39 59 
39 61 
39 72 
39 74 
39 79 
39 83 
39 93 
39 94 
39 105 
39 108 
39 116 
39 117 
40 41 
40 42 
40 43 
40 44 
40 51 
40 55 
40 62 
40 65 
40 73 
40 75 
40 81 
40 84 
40 90 
40 95 
40 100 
40 106 
40 116 
40 117 
41 42 
41 43 
41 44 
41 52 
41 53 
41 58 
41 63 
41 68 
41 74 
41 78 
41 85 
41 96 
41 98 
41 105 
41 107 
41 115 
41 118 
42 43 
42 44 
42 52 
42 53 
42 62 
42 64 
42 75 
42 77 
42 83 
42 86 
42 92 
42 97 
42 102 
42 108 
42 112 
42 119 
43 44 
43 46 
43 54 
43 56 
43 65 
43 70 
43 76 
43 84 
43 87 
43 98 
43 99 
43 104 
43 109 
43 119 
43 120 
44 51 
44 55 
44 63 
44 66 
44 72 
44 77 
44 82 
44 88 
44 91 
44 99 
44 101 
44 110 
44 111 
44 121 
45 46 
45 47 
45 48 
45 49 
45 50 
45 51 
45 52 
45 53 
45 54 
45 55 
45 56 
45 59 
45 67 
45 74 
45 78 
45 79 
45 89 
45 93 
45 100 
45 108 
45 111 
45 117 
46 47 
46 48 
46 49 
46 50 
46 51 
46 52 
46 53 
46 54 
46 55 
46 56 
46 57 
46 68 
46 70 
46 79 
46 84 
46 90 
46 99 
46 101 
46 104 
46 112 
46 119 
47 48 
47 49 
47 50 
47 51 
47 52 
47 53 
47 54 
47 55 
47 58 
47 64 
47 69 
47 71 
47 80 
47 87 
47 91 
47 95 
47 102 
47 103 
47 113 
47 118 
48 49 
48 50 
48 51 
48 52 
48 53 
48 54 
48 55 
48 57 
48 59 
48 70 
48 73 
48 80 
48 81 
48 89 
48 92 
48 103 
48 110 
48 114 
48 120 
49 50 
49 51 
49 52 
49 53 
49 54 
49 55 
49 60 
49 61 
49 71 
49 76 
49 82 
49 86 
49 93 
49 96 
49 104 
49 106 
49 115 
49 121 
50 51 
50 52 
50 53 
50 54 
50 55 
50 61 
50 66 
50 67 
50 72 
50 83 
50 85 
50 94 
50 97 
50 105 
50 109 
50 113 
50 116 
51 52 
51 53 
51 54 
51 55 
51 62 
51 63 
51 72 
51 73 
51 82 
51 84 
51 91 
51 95 
51 101 
51 106 
51 111 
51 117 
52 53 
52 54 
52 55 
52 62 
52 63 
52 74 
52 77 
52 83 
52 85 
52 92 
52 96 
52 102 
52 107 
52 112 
52 118 
53 54 
53 55 
53 58 
53 64 
53 68 
53 75 
53 78 
53 86 
53 97 
53 98 
53 105 
53 108 
53 115 
53 119 
54 55 
54 60 
54 65 
54 69 
54 76 
54 87 
54 88 
54 94 
54 98 
54 107 
54 109 
54 114 
54 120 
55 65 
55 66 
55 75 
55 77 
55 81 
55 88 
55 90 
55 99 
55 100 
55 110 
55 116 
55 121 
56 57 
56 58 
56 59 
56 60 
56 61 
56 62 
56 63 
56 64 
56 65 
56 66 
56 67 
56 70 
56 78 
56 84 
56 89 
56 99 
56 100 
56 104 
56 111 
56 119 
57 58 
57 59 
57 60 
57 61 
57 62 
57 63 
57 64 
57 65 
57 66 
57 68 
57 73 
57 79 
57 80 
57 89 
57 90 
57 101 
57 110 
57 112 
57 120 
58 59 
58 60 
58 61 
58 62 
58 63 
58 64 
58 65 
58 66 
58 68 
58 69 
58 78 
58 80 
58 91 
58 98 
58 102 
58 105 
58 113 
58 115 
59 60 
59 61 
59 62 
59 63 
59 64 
59 65 
59 66 
59 70 
59 74 
59 79 
59 81 
59 92 
59 93 
59 103 
59 108 
59 114 
59 117 
60 61 
60 62 
60 63 
60 64 
60 65 
60 66 
60 69 
60 71 
60 82 
60 88 
60 93 
60 94 
60 104 
60 107 
60 114 
60 115 
61 62 
61 63 
61 64 
61 65 
61 66 
61 72 
61 76 
61 83 
61 86 
61 94 
61 96 
61 105 
61 106 
61 116 
61 121 
62 63 
62 64 
62 65 
62 66 
62 73 
62 77 
62 83 
62 84 
62 92 
62 95 
62 102 
62 106 
62 112 
62 117 
63 64 
63 65 
63 66 
63 72 
63 74 
63 82 
63 85 
63 91 
63 96 
63 101 
63 107 
63 111 
63 118 
64 65 
64 66 
64 71 
64 75 
64 86 
64 87 
64 95 
64 97 
64 103 
64 108 
64 118 
64 119 
65 66 
65 75 
65 76 
65 81 
65 87 
65 90 
65 98 
65 100 
65 109 
65 116 
65 120 
66 67 
66 77 
66 85 
66 88 
66 97 
66 99 
66 109 
66 110 
66 113 
66 121 
67 68 
67 69 
67 70 
67 71 
67 72 
67 73 
67 74 
67 75 
67 76 
67 77 
67 78 
67 85 
67 89 
67 97 
67 100 
67 109 
67 111 
67 113 
68 69 
68 70 
68 71 
68 72 
68 73 
68 74 
68 75 
68 76 
68 77 
68 78 
68 79 
68 90 
68 98 
68 101 
68 105 
68 112 
68 115 
69 70 
69 71 
69 72 
69 73 
69 74 
69 75 
69 76 
69 77 
69 80 
69 88 
69 91 
69 94 
69 102 
69 107 
69 113 
69 114 
70 71 
70 72 
70 73 
70 74 
70 75 
70 76 
70 77 
70 81 
70 84 
70 92 
70 99 
70 103 
70 104 
70 114 
70 119 
71 72 
71 73 
71 74 
71 75 
71 76 
71 77 
71 82 
71 87 
71 93 
71 95 
71 103 
71 104 
71 115 
71 118 
72 73 
72 74 
72 75 
72 76 
72 77 
72 82 
72 83 
72 91 
72 94 
72 101 
72 105 
72 111 
72 116 
73 74 
73 75 
73 76 
73 77 
73 80 
73 84 
73 89 
73 95 
73 106 
73 110 
73 117 
73 120 
74 75 
74 76 
74 77 
74 79 
74 85 
74 93 
74 96 
74 107 
74 108 
74 117 
74 118 
75 76 
75 77 
75 81 
75 86 
75 90 
75 97 
75 100 
75 108 
75 116 
75 119 
76 77 
76 86 
76 87 
76 96 
76 98 
76 106 
76 109 
76 120 
76 121 
77 83 
77 88 
77 92 
77 99 
77 102 
77 110 
77 112 
77 121 
78 79 
78 80 
78 81 
78 82 
78 83 
78 84 
78 85 
78 86 
78 87 
78 88 
78 89 
78 98 
78 100 
78 105 
78 111 
78 115 
79 80 
79 81 
79 82 
79 83 
79 84 
79 85 
79 86 
79 87 
79 88 
79 90 
79 93 
79 101 
79 108 
79 112 
79 117 
80 81 
80 82 
80 83 
80 84 
80 85 
80 86 
80 87 
80 88 
80 89 
80 91 
80 102 
80 110 
80 113 
80 120 
81 82 
81 83 
81 84 
81 85 
81 86 
81 87 
81 88 
81 90 
81 92 
81 100 
81 103 
81 114 
81 116 
82 83 
82 84 
82 85 
82 86 
82 87 
82 88 
82 91 
82 93 
82 101 
82 104 
82 111 
82 115 
83 84 
83 85 
83 86 
83 87 
83 88 
83 92 
83 94 
83 102 
83 105 
83 112 
83 116 
84 85 
84 86 
84 87 
84 88 
84 95 
84 99 
84 104 
84 106 
84 117 
84 119 
85 86 
85 87 
85 88 
85 96 
85 97 
85 107 
85 109 
85 113 
85 118 
86 87 
86 88 
86 96 
86 97 
86 106 
86 108 
86 119 
86 121 
87 88 
87 95 
87 98 
87 103 
87 109 
87 118 
87 120 
88 94 
88 99 
88 107 
88 110 
88 114 
88 121 
89 90 
89 91 
89 92 
89 93 
89 94 
89 95 
89 96 
89 97 
89 98 
89 99 
89 100 
89 110 
89 111 
89 120 
90 91 
90 92 
90 93 
90 94 
90 95 
90 96 
90 97 
90 98 
90 99 
90 100 
90 101 
90 112 
90 116 
91 92 
91 93 
91 94 
91 95 
91 96 
91 97 
91 98 
91 99 
91 101 
91 102 
91 111 
91 113 
92 93 
92 94 
92 95 
92 96 
92 97 
92 98 
92 99 
92 102 
92 103 
92 112 
92 114 
93 94 
93 95 
93 96 
93 97 
93 98 
93 99 
93 104 
93 108 
93 115 
93 117 
94 95 
94 96 
94 97 
94 98 
94 99 
94 105 
94 107 
94 114 
94 116 
95 96 
95 97 
95 98 
95 99 
95 103 
95 106 
95 117 
95 118 
96 97 
96 98 
96 99 
96 106 
96 107 
96 118 
96 121 
97 98 
97 99 
97 108 
97 109 
97 113 
97 119 
98 99 
98 105 
98 109 
98 115 
98 120 
99 104 
99 110 
99 119 
99 121 
100 101 
100 102 
100 103 
100 104 
100 105 
100 106 
100 107 
100 108 
100 109 
100 110 
100 111 
100 116 
101 102 
101 103 
101 104 
101 105 
101 106 
101 107 
101 108 
101 109 
101 110 
101 111 
101 112 
102 103 
102 104 
102 105 
102 106 
102 107 
102 108 
102 109 
102 110 
102 112 
102 113 
103 104 
103 105 
103 106 
103 107 
103 108 
103 109 
103 110 
103 114 
103 118 
104 105 
104 106 
104 107 
104 108 
104 109 
104 110 
104 115 
104 119 
105 106 
105 107 
105 108 
105 109 
105 110 
105 115 
105 116 
106 107 
106 108 
106 109 
106 110 
106 117 
106 121 
107 108 
107 109 
107 110 
107 114 
107 118 
108 109 
108 110 
108 117 
108 119 
109 110 
109 113 
109 120 
110 120 
110 121 
111 112 
111 113 
111 114 
111 115 
111 116 
111 117 
111 118 
111 119 
111 120 
111 121 
112 113 
112 114 
112 115 
112 116 
112 117 
112 118 
112 119 
112 120 
112 121 
113 114 
113 115 
113 116 
113 117 
113 118 
113 119 
113 120 
113 121 
114 115 
114 116 
114 117 
114 118 
114 119 
114 120 
114 121 
115 116 
115 117 
115 118 
115 119 
115 120 
115 121 
116 117 
116 118 
116 119 
116 120 
116 121 
117 118 
117 119 
117 120 
117 121 
118 119 
118 120 
118 121 
119 120 
119 121 
120 121 
